0 0 0 0
0 1 0 5
0 2 0 0
0 3 0 0
0 4 0 6
0 5 0 3
0 6 0 2
0 7 0 6
0 8 1 8
0 9 1 2
0 10 0 6
0 11 0 8
0 12 2 6
0 13 0 6
0 14 0 8
0 15 0 8
0 16 1 9
0 17 0 16
0 18 1 7
0 19 1 12
0 20 0 15
0 21 0 21
0 22 1 18
0 23 0 13
0 24 1 18
0 25 0 16
0 26 1 21
0 27 2 15
0 28 0 25
0 29 0 20
0 30 0 24
0 31 0 26
